c This file was taken from https://people.sc.fsu.edu/~jburkardt/data/cnf/cnf.html
c and is distributed under the GNU LGPL v3 license (see gnu_lgpl.txt).

c  simple_v3_c2.cnf
c
p cnf 3 2
1 -3 0
2 3 -1 0
